
Gurobi 9.5.0 (win64) logging started Tue Jul 12 19:02:20 2022

Set parameter LogFile to value "C:\Users\kmajd1\Documents\NNRepLayer_v2\demos\examples\tc7_walking_example\repair_inp_out_constraint\repair_net/logs/opt_log_7_12_2022_19_1_34.log"
Gurobi Optimizer version 9.5.0 build v9.5.0rc5 (win64)
Thread count: 8 physical cores, 16 logical processors, using up to 16 threads
Optimize a model with 35067 rows, 22858 columns and 547611 nonzeros
Model fingerprint: 0x3a0dc457
Model has 169 quadratic objective terms
Variable types: 12042 continuous, 10816 integer (10816 binary)
Coefficient statistics:
  Matrix range     [2e-04, 7e+02]
  Objective range  [1e-02, 2e+00]
  QObjective range [1e-01, 1e-01]
  Bounds range     [5e-01, 2e+03]
  RHS range        [5e-04, 6e+02]
Presolve removed 397 rows and 42 columns
Presolve time: 1.24s
Presolved: 34670 rows, 22816 columns, 545454 nonzeros
Presolved model has 169 quadratic objective terms
Variable types: 12021 continuous, 10795 integer (10795 binary)

Root relaxation: objective 2.373463e+01, 12975 iterations, 0.28 seconds (0.31 work units)

    Nodes    |    Current Node    |     Objective Bounds      |     Work
 Expl Unexpl |  Obj  Depth IntInf | Incumbent    BestBd   Gap | It/Node Time

     0     0   23.73463    0 1618          -   23.73463      -     -    2s
     0     0   23.73463    0 2041          -   23.73463      -     -    4s
     0     0   23.73463    0 2122          -   23.73463      -     -    6s
     0     0   23.73463    0 2092          -   23.73463      -     -    9s
     0     0   23.73463    0 2092          -   23.73463      -     -   11s
     0     0   23.73463    0 2020          -   23.73463      -     -   14s
     0     0   23.73463    0 2023          -   23.73463      -     -   17s
     0     0   23.73463    0 2014          -   23.73463      -     -   21s
     0     0   23.73463    0 2001          -   23.73463      -     -   24s
     0     0   23.73463    0 1963          -   23.73463      -     -   31s
     0     2   23.73463    0 1963          -   23.73463      -     -  150s
     7    16   23.73463    3 1944          -   23.73463      -  1803  156s
    15    24   23.73463    4 1878          -   23.73463      -  3872  166s
    23    32   23.73463    4 1885          -   23.73463      -  4876  176s
    47    62   23.73463    7 1887          -   23.73463      -  3511  180s
   101   140   23.73463   12 1866          -   23.73463      -  1915  186s
   194   238   23.73463   24 1841          -   23.73463      -  1162  191s
   237   329   23.73463   30 1840          -   23.73463      -  1030  195s
   328   455   23.91853   37 1818          -   23.73463      -   856  200s
   623   737   23.91853   71 1821          -   23.73463      -   585  209s
   736   819   23.91853   88 1795          -   23.73463      -   537  213s
   818   880   23.91853   96 1789          -   23.73463      -   525  217s
   879  1011   23.91853  100 1786          -   23.73463      -   530  222s
  1010  1140   23.91853  118 1801          -   23.73463      -   498  226s
  1139  1255   23.91853  127 1782          -   23.73463      -   480  232s
  1254  1352   23.91853  145 1788          -   23.73463      -   473  237s
  1351  1495   23.91853  154 1773          -   23.73463      -   477  243s
  1494  1612   23.91853  170 1777          -   23.73463      -   466  247s
  1611  1741   23.91853  180 1780          -   23.73463      -   460  253s
  1740  1875   23.91853  185 1769          -   23.73463      -   457  261s
  1874  1966   23.91853  192 1769          -   23.73463      -   459  282s
  1965  2056   23.91853  211 1769          -   23.73463      -   504  294s
  2055  2176   23.91853  220 1751          -   23.73463      -   531  318s
  2175  2331   23.97770  229 1749          -   23.73463      -   562  325s
  2330  2463   23.97770  259 1679          -   23.73463      -   557  332s
  2462  2604   23.97770  278 1675          -   23.73463      -   563  339s
  2607  2742   23.97770  304 1667          -   23.73463      -   561  365s
  2745  2878   23.97770  318 1666          -   23.73463      -   587  373s
  2881  3022   23.98619  354 1624          -   23.73463      -   591  382s
  3025  3201   23.98656  375 1599          -   23.73463      -   597  391s
  3204  3337   23.98656  399 1668          -   23.73463      -   596  400s
  3340  3485   23.98656  428 1630          -   23.73463      -   605  410s
  3490  3628   23.98656  450 1618          -   23.73463      -   615  420s

Cutting planes:
  Gomory: 15
  Cover: 372
  Implied bound: 4
  MIR: 1412
  StrongCG: 2
  Flow cover: 1664
  Zero half: 14
  RLT: 81
  Relax-and-lift: 1

Explored 3635 nodes (2366856 simplex iterations) in 420.43 seconds (1130.08 work units)
Thread count was 16 (of 16 available processors)

Solution count 0

Solve interrupted
Best objective -, best bound 2.373462794941e+01, gap -
